[2026-03-24T00:39:35.322Z] Pipeline "set_prova_set_prova_set_s002_g005" → 2026_03_24_00_39_35_set_prova_set_prova_set_s002_g005_max.sol
Set parameter WLSAccessID
Set parameter WLSSecret
Set parameter LicenseID to value 2792458
Set parameter LogFile to value "gurobi.log"
Using license file /root/gurobi.lic
Academic license 2792458 - for non-commercial use only - registered to an___@studenti.unipg.it

Gurobi Optimizer version 13.0.1 build v13.0.1rc0 (linux64 - "Ubuntu 24.04.4 LTS")
Copyright (c) 2026, Gurobi Optimization, LLC

Warning: Duplicate section found (read 'binary') - Is a variable name equal to an LP file format keyword?
Warning: Duplicate section found (read 'binary') - Is a variable name equal to an LP file format keyword?
Warning: Duplicate section found (read 'binary') - Is a variable name equal to an LP file format keyword?
Warning: Duplicate section found (read 'binary') - Is a variable name equal to an LP file format keyword?
Warning: Duplicate section found (read 'binary') - Is a variable name equal to an LP file format keyword?
Warning: Duplicate section found (read 'binary') - Is a variable name equal to an LP file format keyword?
Warning: Duplicate section found (read 'binary') - Is a variable name equal to an LP file format keyword?
Warning: Duplicate section found (read 'binary') - Is a variable name equal to an LP file format keyword?
Warning: Duplicate section found (read 'binary') - Is a variable name equal to an LP file format keyword?
Warning: Duplicate section found (read 'binary') - Is a variable name equal to an LP file format keyword?
Warning: Further warnings of this type will be omitted.
Read LP format model from file /root/bgw/data/uploads/2026_03_24_00_39_35_set_prova_set_prova_set_s002_g005_max.lp
Reading time = 0.00 seconds
: 2677 rows, 288 columns, 8026 nonzeros

Using Gurobi shared library /opt/gurobi1301/linux64/lib/libgurobi.so.13.0.1

CPU model: AMD EPYC-Genoa Processor, instruction set [SSE2|AVX|AVX2|AVX512]
Thread count: 16 physical cores, 16 logical processors, using up to 16 threads

Academic license 2792458 - for non-commercial use only - registered to an___@studenti.unipg.it
Optimize a model with 2677 rows, 288 columns and 8026 nonzeros (Max)
Model fingerprint: 0x9a1f0616
Model has 13 linear objective coefficients
Variable types: 33 continuous, 255 integer (255 binary)
Coefficient statistics:
  Matrix range     [1e+00, 2e+01]
  Objective range  [1e+00, 1e+00]
  Bounds range     [1e+00, 1e+00]
  RHS range        [1e+00, 2e+01]

Found heuristic solution: objective 13.0000000
Presolve removed 348 rows and 68 columns
Presolve time: 0.01s
Presolved: 2329 rows, 220 columns, 7174 nonzeros
Variable types: 0 continuous, 220 integer (209 binary)
Found heuristic solution: objective 17.0000000

Root relaxation: objective 5.800000e+01, 234 iterations, 0.01 seconds (0.01 work units)

    Nodes    |    Current Node    |     Objective Bounds      |     Work
 Expl Unexpl |  Obj  Depth IntInf | Incumbent    BestBd   Gap | It/Node Time

     0     0   58.00000    0   60   17.00000   58.00000   241%     -    0s
H    0     0                      21.0000000   58.00000   176%     -    0s
H    0     0                      30.0000000   58.00000  93.3%     -    0s
H    0     0                      31.0000000   58.00000  87.1%     -    0s
     0     0   58.00000    0   68   31.00000   58.00000  87.1%     -    0s
H    0     0                      32.0000000   58.00000  81.2%     -    0s
     0     0   58.00000    0   67   32.00000   58.00000  81.2%     -    0s
     0     0   58.00000    0   43   32.00000   58.00000  81.2%     -    0s
     0     0   58.00000    0   60   32.00000   58.00000  81.2%     -    0s
     0     0   58.00000    0   52   32.00000   58.00000  81.2%     -    0s
H    0     0                      34.0000000   58.00000  70.6%     -    0s
     0     0   58.00000    0   55   34.00000   58.00000  70.6%     -    0s
     0     0   58.00000    0   44   34.00000   58.00000  70.6%     -    0s
     0     0   58.00000    0   44   34.00000   58.00000  70.6%     -    0s
H    0     0                      35.0000000   58.00000  65.7%     -    0s
     0     0   58.00000    0   47   35.00000   58.00000  65.7%     -    0s
     0     0   58.00000    0   43   35.00000   58.00000  65.7%     -    0s
     0     0   58.00000    0   58   35.00000   58.00000  65.7%     -    0s
     0     0   58.00000    0   56   35.00000   58.00000  65.7%     -    0s
     0     0   58.00000    0   55   35.00000   58.00000  65.7%     -    0s
     0     0   58.00000    0   56   35.00000   58.00000  65.7%     -    0s
     0     0   58.00000    0   48   35.00000   58.00000  65.7%     -    0s
     0     0   58.00000    0   48   35.00000   58.00000  65.7%     -    0s
     0     0   58.00000    0   43   35.00000   58.00000  65.7%     -    0s
     0     2   58.00000    0   43   35.00000   58.00000  65.7%     -    0s
H   11    16                      37.0000000   58.00000  56.8%  84.0    0s
  6314  1446 infeasible   21        37.00000   50.75000  37.2%  99.3    5s

Cutting planes:
  Inf proof: 7

Explored 11308 nodes (1004540 simplex iterations) in 6.94 seconds (11.34 work units)
Thread count was 16 (of 16 available processors)

Solution count 10: 37 37 37 ... 21

Optimal solution found (tolerance 1.00e-04)
Best objective 3.700000000000e+01, best bound 3.700000000000e+01, gap 0.0000%

Wrote result file '/root/bgw/data/results/2026_03_24_00_39_35_set_prova_set_prova_set_s002_g005_max.sol'

